db/data/28367359626116128882163222623234707289.z3.out
-------------------
2500.394512144
